3 3 2
30 2 21 1 159 2 84 0 19 1 174 2 52 1 189 0 80 2 3 0 38 2 170 1 130 0 6 2 164 1 60 0 162 2 184 1 37 2 182 1 64 0 85 2 101 1 75 0 187 2 37 1 127 0 125 1 99 2 171 1 76 
30 0 3 1 189 0 32 2 151 0 83 2 49 1 32 0 78 2 166 0 100 2 155 0 28 2 101 0 104 2 141 1 1 0 123 1 76 2 138 1 15 0 177 2 33 0 42 1 70 0 2 1 41 0 30 2 173 1 7 2 190 
30 0 134 1 193 2 171 1 189 2 23 1 159 0 0 1 9 2 12 0 147 1 39 0 174 1 152 2 147 0 87 2 39 0 97 2 31 0 136 1 150 2 74 1 38 0 170 2 93 0 104 1 78 0 22 1 62 0 181 2 42 

-------------
